22113 0
14 29 26 79 17 38 90 8 22 52 18 9 53 42 98 67 78 68 48 41 59 63 85 6 23 49 82 94 30 46 36 45 1 60 33 97 15 93 12 0 65 86 10 75 27 58 31 56 81 73 95 61 89 2 50 34 76 64 62 28 69 13 91 4 16 80 96 55 3 24 71 57 66 74 39 83 7 47 37 88 77 87 20 21 32 11 5 54 92 35 99 44 43 40 19 25 70 72 84 51
